job_count = 14 ;
duration = [|6, 14, 3|11, 3, 5|15, 18, 5|17, 13, 9|18, 8, 4|27, 7, 3|25, 17, 7|23, 16, 2|19, 5, 9|13, 16, 5|25, 17, 6|3, 6, 3|10, 6, 5|7, 17, 3|] ;
machine_count = 3 ;
cost = [|18, 26, 38|13, 20, 57|11, 31, 32|11, 22, 38|12, 23, 35|13, 37, 32|17, 36, 37|15, 27, 45|16, 37, 33|19, 25, 41|14, 38, 58|17, 33, 45|10, 27, 54|15, 33, 42|] ;
deadline = [31, 31, 31, 31, 31, 31, 31, 31, 31, 31, 31, 31, 31, 31] ;
release = [0, 0, 0, 0, 0, 0, 0, 0, 0, 0, 0, 0, 0, 0] ;
resource = [|5, 5, 5|5, 5, 5|6, 6, 6|9, 9, 9|9, 9, 9|8, 8, 8|1, 1, 1|1, 1, 1|1, 1, 1|9, 9, 9|6, 6, 6|6, 6, 6|4, 4, 4|9, 9, 9|] ;
capacities = [10, 10, 10] ;
